105430
0,9,28,44,45,53,65,35,25,79,61,69,13,75,66,19,76,8,70,20,18,4,21,43,67,58,52,82,7,27,78,5,60,14,41,1,29,34,37,15,32,6,26,10,74,81,39,31,73,57,16,55,50,71,80,59,46,48,33,56,42,2,11,22,54,24,68,77,40,51,38,62,3,49,64,30,23,47,17,36,12,72,63,0